NAME: natal
TYPE: TSP
COMMENT: 20-Natal in Rio Grande do Norte
DIMENSION: 20
EDGE_WEIGHT_TYPE: GEO
EDGE_WEIGHT_FORMAT: FUNCTION 
DISPLAY_DATA_TYPE: COORD_DISPLAY
NODE_COORD_SECTION
   1  -5.7807       -35.2009
   2  -5.7944       -35.2100
   3  -5.7989       -35.2090
   4  -5.8025       -35.2042
   5  -5.8029       -35.2025
   6  -5.8095       -35.2055
   7  -5.8107       -35.2003
   8  -5.8175       -35.2022
   9  -5.8191       -35.2049
  10  -5.8234       -35.2014
  11  -5.8248       -35.1961
  12  -5.8288       -35.1972
  13  -5.8310       -35.2001
  14  -5.8349       -35.1996
  15  -5.8386       -35.2013
  16  -5.8394       -35.2064
  17  -5.8460       -35.2071
  18  -5.8463       -35.2126
  19  -5.8499       -35.2133
  20  -5.8522       -35.2172
EOF